language Essence 1.3

letting class be
        function(1 --> 4, 2 --> 8, 3 --> 7, 4 --> 5, 5 --> 6, 6 --> 1, 7 --> 1, 8 --> 4, 9 --> 1, 10 --> 3, 11 --> 9,
                 12 --> 3, 13 --> 2, 14 --> 6, 15 --> 7, 16 --> 7, 17 --> 6, 18 --> 6, 19 --> 3, 20 --> 7, 21 --> 9,
                 22 --> 9, 23 --> 2, 24 --> 2, 25 --> 3, 26 --> 6, 27 --> 4, 28 --> 7)
letting deck_length be 88
letting deck_width be 34
letting length be
        function(1 --> 1, 2 --> 8, 3 --> 1, 4 --> 2, 5 --> 1, 6 --> 1, 7 --> 1, 8 --> 1, 9 --> 1, 10 --> 1, 11 --> 1,
                 12 --> 1, 13 --> 1, 14 --> 1, 15 --> 1, 16 --> 2, 17 --> 32, 18 --> 1, 19 --> 1, 20 --> 1, 21 --> 1,
                 22 --> 1, 23 --> 1, 24 --> 1, 25 --> 1, 26 --> 1, 27 --> 1, 28 --> 2)
letting n_classes be 9
letting n_containers be 28
letting separation be function({1, 2} --> 64, {1, 3} --> 61, {2, 3} --> 23)
letting width be
        function(1 --> 11, 2 --> 1, 3 --> 1, 4 --> 25, 5 --> 1, 6 --> 1, 7 --> 1, 8 --> 1, 9 --> 1, 10 --> 1, 11 --> 30,
                 12 --> 1, 13 --> 1, 14 --> 12, 15 --> 12, 16 --> 4, 17 --> 34, 18 --> 1, 19 --> 13, 20 --> 1, 21 --> 1,
                 22 --> 1, 23 --> 1, 24 --> 24, 25 --> 16, 26 --> 1, 27 --> 1, 28 --> 29)
